100
128
14
22
55
48
1
5
47
34
27
25
16
54
16
17
30
20
31
24
36
19
32
42
2
29
2
35
41
43
44
41
22
17
22
55
26
25
26
40
62
19
24
59
4
4
17
27
29
32
63
64
47
28
3
23
38
25
55
25
48
19
46
42
47
24
57
62
20
56
22
50
28
63
64
21
27
45
56
18
3
48
18
62
25
46
54
38
41
61
62
52
32
46
56
45
59
64
44
63
64
27